NAME : instances/clustered-mixed-tsp/instance-45.tsp
COMMENT : No Comment
TYPE : TSP
DIMENSION: 35
EDGE_WEIGHT_TYPE : EUC_2D
NODE_COORD_SECTION
1 1 1787 
2 245 1506 
3 1089 613 
4 0 1023 
5 1114 231 
6 765 1188 
7 774 14 
8 146 557 
9 1813 1940 
10 543 1638 
11 595 1885 
12 706 1151 
13 217 549 
14 1545 1163 
15 690 1862 
16 1786 388 
17 1287 394 
18 1886 1875 
19 1768 614 
20 1403 439 
21 1732 1226 
22 41 1889 
23 169 1187 
24 496 58 
25 457 223 
26 1399 1094 
27 385 1739 
28 1178 1004 
29 759 1907 
30 408 1309 
31 437 860 
32 287 325 
33 575 783 
34 1940 139 
35 1461 1194 
EOF
